p edge 60 197
e 1 7
e 1 9
e 1 18
e 1 22
e 1 23
e 1 28
e 1 35
e 1 39
e 1 55
e 1 58
e 2 11
e 2 13
e 2 23
e 2 33
e 2 44
e 2 48
e 2 52
e 3 4
e 3 17
e 3 30
e 3 36
e 3 52
e 3 55
e 3 56
e 4 34
e 4 37
e 4 41
e 4 52
e 5 9
e 5 17
e 5 18
e 5 28
e 5 29
e 5 30
e 5 56
e 5 59
e 6 7
e 6 10
e 6 17
e 6 23
e 6 42
e 6 43
e 7 9
e 7 10
e 7 11
e 7 14
e 7 21
e 7 28
e 7 38
e 7 43
e 7 56
e 8 15
e 8 25
e 8 27
e 8 30
e 8 32
e 8 35
e 8 39
e 8 50
e 8 51
e 9 15
e 9 16
e 9 35
e 9 38
e 9 39
e 9 51
e 10 12
e 10 16
e 10 18
e 10 35
e 10 36
e 10 51
e 11 35
e 11 36
e 11 44
e 11 46
e 12 22
e 12 23
e 12 25
e 12 41
e 12 46
e 12 48
e 12 52
e 13 15
e 13 18
e 13 27
e 13 50
e 13 59
e 14 29
e 14 30
e 14 37
e 14 40
e 14 45
e 14 48
e 14 50
e 15 18
e 15 23
e 15 30
e 15 38
e 15 42
e 15 43
e 15 50
e 15 54
e 16 29
e 16 35
e 16 38
e 16 51
e 16 58
e 17 27
e 17 56
e 17 57
e 17 58
e 18 28
e 18 30
e 18 32
e 18 36
e 18 48
e 18 50
e 19 29
e 19 38
e 19 41
e 19 45
e 19 57
e 20 33
e 20 34
e 20 55
e 21 22
e 22 49
e 22 51
e 23 27
e 24 34
e 24 48
e 24 50
e 24 59
e 25 31
e 25 33
e 25 53
e 26 28
e 26 31
e 26 34
e 26 46
e 26 53
e 26 55
e 26 57
e 27 47
e 27 53
e 28 30
e 28 32
e 28 40
e 28 49
e 28 56
e 29 40
e 29 41
e 29 45
e 29 52
e 30 39
e 30 46
e 31 53
e 32 34
e 32 58
e 33 38
e 33 52
e 34 45
e 34 46
e 34 53
e 34 54
e 35 47
e 35 57
e 37 48
e 37 49
e 38 52
e 38 59
e 39 43
e 39 44
e 39 49
e 39 60
e 40 45
e 40 47
e 40 55
e 41 51
e 41 56
e 41 57
e 41 59
e 42 44
e 42 49
e 42 58
e 43 44
e 43 55
e 44 58
e 45 55
e 46 57
e 48 51
e 49 58
e 51 57
e 52 58
e 53 55
e 55 57
